units metal 
boundary p p p
atom_style atomic 
variable x index 3.08 3.09 3.1 3.11 3.12 3.13 3.14 3.15 3.16 3.17 3.18 3.19 3.2 3.21 3.22
lattice bcc $x 
region box block 0 5 0 5 0 5 
create_box 1 box 
create_atoms 1 box
mass 1 95.95

pair_style      tabMLP
pair_coeff      * * Mo-Re.tabMLP Mo yes yes yes
#pair_coeff      * * Mo-Re.tabMLP Mo Re yes yes yes
neighbor 1.0 bin 
neigh_modify every 1 delay 5 check yes 
variable P equal pe/250
variable r equal 250/($x*3)^3 
timestep 0.005 
thermo 10
min_style sd
minimize 1.0e-15 1.0e-15 1000 1000
print "@@@@ $P"
clear 
next x 
jump in.test
